% Logging successfully configured
%%%mzn-stat: initTime=0.069870831
%%%mzn-stat: objective=851
%%%mzn-stat: nodes=259
%%%mzn-stat: restarts=0
%%%mzn-stat: peakDepth=256
%%%mzn-stat: solveTime=0.000623751
%%%mzn-stat: variables=526
%%%mzn-stat: propagators=558
%%%mzn-stat: failures=3
%%%mzn-stat: propagations=2050
%%%mzn-stat: nogoods=3
%%%mzn-stat: numAtomicConstraintsPropagated=0
%%%mzn-stat: circuitNumber191PropagationsThatFoundConflict=1
%%%mzn-stat: circuitNumber191TotalFixedEdgesAtConflict=14
%%%mzn-stat: circuitNumber191NumberOfConflicts=1
%%%mzn-stat: circuitNumber191PropagationsThatPruned=2
%%%mzn-stat: circuitNumber191PropagationsTotal=21
%%%mzn-stat: AverageConflictSize=6
%%%mzn-stat: NumUnitNogoodsLearned=0
%%%mzn-stat: AverageLearnedNogoodLength=14.333333333333334
%%%mzn-stat: AverageBacktrackAmount=0
%%%mzn-stat: AverageLbd=8.333333333333334
%%%mzn-stat: 2AutonomousSearchNumBackupCalled=241
%%%mzn-stat: 2AutonomousSearchNumPredicatesRemoved=0
%%%mzn-stat: 2AutonomousSearchNumCalls=242
%%%mzn-stat: 2AutonomousSearchNumPredicatesAdded=148
%%%mzn-stat: 2AutonomousSearchAverageSizeOfHeap=0.6115702479338843
%%%mzn-stat: 2AutonomousSearchNumAssignedPredicatesEncountered=148
%%%mzn-stat-end
maxleg = 851;
succ = array1d(1..20,[2, 4, 1, 5, 6, 8, 3, 9, 10, 13, 12, 16, 19, 7, 14, 17, 18, 20, 11, 15]);
% time elapsed: 10.21 s
----------
%%%mzn-stat: initTime=0.069870831
%%%mzn-stat: objective=673
%%%mzn-stat: nodes=519
%%%mzn-stat: restarts=0
%%%mzn-stat: peakDepth=257
%%%mzn-stat: solveTime=0.001091109
%%%mzn-stat: variables=526
%%%mzn-stat: propagators=558
%%%mzn-stat: failures=7
%%%mzn-stat: propagations=3440
%%%mzn-stat: nogoods=7
%%%mzn-stat: numAtomicConstraintsPropagated=0
%%%mzn-stat: circuitNumber191PropagationsThatFoundConflict=1
%%%mzn-stat: circuitNumber191TotalFixedEdgesAtConflict=14
%%%mzn-stat: circuitNumber191NumberOfConflicts=1
%%%mzn-stat: circuitNumber191PropagationsThatPruned=3
%%%mzn-stat: circuitNumber191PropagationsTotal=41
%%%mzn-stat: AverageConflictSize=3.7142857142857144
%%%mzn-stat: NumUnitNogoodsLearned=0
%%%mzn-stat: AverageLearnedNogoodLength=13
%%%mzn-stat: AverageBacktrackAmount=0
%%%mzn-stat: AverageLbd=6.571428571428571
%%%mzn-stat: 2AutonomousSearchNumBackupCalled=480
%%%mzn-stat: 2AutonomousSearchNumPredicatesRemoved=0
%%%mzn-stat: 2AutonomousSearchNumCalls=482
%%%mzn-stat: 2AutonomousSearchNumPredicatesAdded=268
%%%mzn-stat: 2AutonomousSearchAverageSizeOfHeap=0.6327800829875518
%%%mzn-stat: 2AutonomousSearchNumAssignedPredicatesEncountered=305
%%%mzn-stat-end
maxleg = 673;
succ = array1d(1..20,[2, 4, 1, 5, 6, 8, 3, 9, 10, 13, 12, 17, 19, 7, 14, 15, 18, 20, 11, 16]);
% time elapsed: 10.21 s
----------
%%%mzn-stat: initTime=0.069870831
%%%mzn-stat: objective=656
%%%mzn-stat: nodes=764
%%%mzn-stat: restarts=0
%%%mzn-stat: peakDepth=257
%%%mzn-stat: solveTime=0.001636472
%%%mzn-stat: variables=526
%%%mzn-stat: propagators=558
%%%mzn-stat: failures=11
%%%mzn-stat: propagations=4787
%%%mzn-stat: nogoods=11
%%%mzn-stat: numAtomicConstraintsPropagated=0
%%%mzn-stat: circuitNumber191PropagationsThatFoundConflict=3
%%%mzn-stat: circuitNumber191TotalFixedEdgesAtConflict=43
%%%mzn-stat: circuitNumber191NumberOfConflicts=3
%%%mzn-stat: circuitNumber191PropagationsThatPruned=4
%%%mzn-stat: circuitNumber191PropagationsTotal=62
%%%mzn-stat: AverageConflictSize=5.818181818181818
%%%mzn-stat: NumUnitNogoodsLearned=0
%%%mzn-stat: AverageLearnedNogoodLength=13.727272727272727
%%%mzn-stat: AverageBacktrackAmount=0
%%%mzn-stat: AverageLbd=7.454545454545454
%%%mzn-stat: 2AutonomousSearchNumBackupCalled=704
%%%mzn-stat: 2AutonomousSearchNumPredicatesRemoved=0
%%%mzn-stat: 2AutonomousSearchNumCalls=707
%%%mzn-stat: 2AutonomousSearchNumPredicatesAdded=423
%%%mzn-stat: 2AutonomousSearchAverageSizeOfHeap=0.7043847241867044
%%%mzn-stat: 2AutonomousSearchNumAssignedPredicatesEncountered=498
%%%mzn-stat-end
maxleg = 656;
succ = array1d(1..20,[2, 4, 1, 5, 6, 8, 3, 9, 10, 13, 17, 11, 19, 7, 14, 15, 18, 20, 12, 16]);
% time elapsed: 10.21 s
----------
%%%mzn-stat: initTime=0.069870831
%%%mzn-stat: objective=625
%%%mzn-stat: nodes=1033
%%%mzn-stat: restarts=0
%%%mzn-stat: peakDepth=257
%%%mzn-stat: solveTime=0.003201627
%%%mzn-stat: variables=526
%%%mzn-stat: propagators=558
%%%mzn-stat: failures=38
%%%mzn-stat: propagations=8793
%%%mzn-stat: nogoods=38
%%%mzn-stat: numAtomicConstraintsPropagated=0
%%%mzn-stat: circuitNumber191PropagationsThatFoundConflict=14
%%%mzn-stat: circuitNumber191TotalFixedEdgesAtConflict=202
%%%mzn-stat: circuitNumber191NumberOfConflicts=14
%%%mzn-stat: circuitNumber191PropagationsThatPruned=5
%%%mzn-stat: circuitNumber191PropagationsTotal=119
%%%mzn-stat: AverageConflictSize=4.657894736842105
%%%mzn-stat: NumUnitNogoodsLearned=0
%%%mzn-stat: AverageLearnedNogoodLength=10.18421052631579
%%%mzn-stat: AverageBacktrackAmount=0
%%%mzn-stat: AverageLbd=5.473684210526316
%%%mzn-stat: 2AutonomousSearchNumBackupCalled=919
%%%mzn-stat: 2AutonomousSearchNumPredicatesRemoved=0
%%%mzn-stat: 2AutonomousSearchNumCalls=923
%%%mzn-stat: 2AutonomousSearchNumPredicatesAdded=698
%%%mzn-stat: 2AutonomousSearchAverageSizeOfHeap=0.8656554712892741
%%%mzn-stat: 2AutonomousSearchNumAssignedPredicatesEncountered=799
%%%mzn-stat-end
maxleg = 625;
succ = array1d(1..20,[2, 4, 1, 5, 6, 8, 3, 9, 14, 13, 12, 7, 19, 15, 16, 17, 18, 20, 11, 10]);
% time elapsed: 10.21 s
----------
%%%mzn-stat: initTime=0.069870831
%%%mzn-stat: objective=573
%%%mzn-stat: nodes=1251
%%%mzn-stat: restarts=0
%%%mzn-stat: peakDepth=257
%%%mzn-stat: solveTime=0.003558193
%%%mzn-stat: variables=526
%%%mzn-stat: propagators=558
%%%mzn-stat: failures=38
%%%mzn-stat: propagations=9761
%%%mzn-stat: nogoods=38
%%%mzn-stat: numAtomicConstraintsPropagated=0
%%%mzn-stat: circuitNumber191PropagationsThatFoundConflict=14
%%%mzn-stat: circuitNumber191TotalFixedEdgesAtConflict=202
%%%mzn-stat: circuitNumber191NumberOfConflicts=14
%%%mzn-stat: circuitNumber191PropagationsThatPruned=7
%%%mzn-stat: circuitNumber191PropagationsTotal=136
%%%mzn-stat: AverageConflictSize=4.657894736842105
%%%mzn-stat: NumUnitNogoodsLearned=0
%%%mzn-stat: AverageLearnedNogoodLength=10.18421052631579
%%%mzn-stat: AverageBacktrackAmount=0
%%%mzn-stat: AverageLbd=5.473684210526316
%%%mzn-stat: 2AutonomousSearchNumBackupCalled=1122
%%%mzn-stat: 2AutonomousSearchNumPredicatesRemoved=0
%%%mzn-stat: 2AutonomousSearchNumCalls=1127
%%%mzn-stat: 2AutonomousSearchNumPredicatesAdded=698
%%%mzn-stat: 2AutonomousSearchAverageSizeOfHeap=0.9760425909494232
%%%mzn-stat: 2AutonomousSearchNumAssignedPredicatesEncountered=1100
%%%mzn-stat-end
maxleg = 573;
succ = array1d(1..20,[2, 4, 1, 5, 6, 8, 3, 9, 14, 13, 12, 19, 11, 15, 16, 17, 18, 20, 7, 10]);
% time elapsed: 10.21 s
----------
%%%mzn-stat: initTime=0.069870831
%%%mzn-stat: objective=552
%%%mzn-stat: nodes=1743
%%%mzn-stat: restarts=0
%%%mzn-stat: peakDepth=257
%%%mzn-stat: solveTime=0.013526258
%%%mzn-stat: variables=526
%%%mzn-stat: propagators=558
%%%mzn-stat: failures=181
%%%mzn-stat: propagations=31296
%%%mzn-stat: nogoods=181
%%%mzn-stat: numAtomicConstraintsPropagated=0
%%%mzn-stat: circuitNumber191PropagationsThatFoundConflict=33
%%%mzn-stat: circuitNumber191TotalFixedEdgesAtConflict=468
%%%mzn-stat: circuitNumber191NumberOfConflicts=33
%%%mzn-stat: circuitNumber191PropagationsThatPruned=23
%%%mzn-stat: circuitNumber191PropagationsTotal=415
%%%mzn-stat: AverageConflictSize=3.314917127071823
%%%mzn-stat: NumUnitNogoodsLearned=0
%%%mzn-stat: AverageLearnedNogoodLength=18.370165745856355
%%%mzn-stat: AverageBacktrackAmount=0
%%%mzn-stat: AverageLbd=7.414364640883978
%%%mzn-stat: 2AutonomousSearchNumBackupCalled=1327
%%%mzn-stat: 2AutonomousSearchNumPredicatesRemoved=0
%%%mzn-stat: 2AutonomousSearchNumCalls=1333
%%%mzn-stat: 2AutonomousSearchNumPredicatesAdded=1108
%%%mzn-stat: 2AutonomousSearchAverageSizeOfHeap=1.159039759939985
%%%mzn-stat: 2AutonomousSearchNumAssignedPredicatesEncountered=1545
%%%mzn-stat-end
maxleg = 552;
succ = array1d(1..20,[2, 4, 1, 5, 6, 8, 10, 9, 14, 13, 3, 11, 19, 16, 7, 17, 18, 20, 12, 15]);
% time elapsed: 10.22 s
----------
%%%mzn-stat: initTime=0.069870831
%%%mzn-stat: objective=510
%%%mzn-stat: nodes=1957
%%%mzn-stat: restarts=0
%%%mzn-stat: peakDepth=257
%%%mzn-stat: solveTime=0.01448958
%%%mzn-stat: variables=526
%%%mzn-stat: propagators=558
%%%mzn-stat: failures=187
%%%mzn-stat: propagations=32882
%%%mzn-stat: nogoods=187
%%%mzn-stat: numAtomicConstraintsPropagated=0
%%%mzn-stat: circuitNumber191PropagationsThatFoundConflict=37
%%%mzn-stat: circuitNumber191TotalFixedEdgesAtConflict=523
%%%mzn-stat: circuitNumber191NumberOfConflicts=37
%%%mzn-stat: circuitNumber191PropagationsThatPruned=25
%%%mzn-stat: circuitNumber191PropagationsTotal=440
%%%mzn-stat: AverageConflictSize=3.513368983957219
%%%mzn-stat: NumUnitNogoodsLearned=0
%%%mzn-stat: AverageLearnedNogoodLength=18.28342245989305
%%%mzn-stat: AverageBacktrackAmount=0
%%%mzn-stat: AverageLbd=7.470588235294118
%%%mzn-stat: 2AutonomousSearchNumBackupCalled=1519
%%%mzn-stat: 2AutonomousSearchNumPredicatesRemoved=0
%%%mzn-stat: 2AutonomousSearchNumCalls=1526
%%%mzn-stat: 2AutonomousSearchNumPredicatesAdded=1195
%%%mzn-stat: 2AutonomousSearchAverageSizeOfHeap=1.3099606815203146
%%%mzn-stat: 2AutonomousSearchNumAssignedPredicatesEncountered=1999
%%%mzn-stat-end
maxleg = 510;
succ = array1d(1..20,[2, 4, 1, 5, 6, 11, 8, 3, 14, 9, 12, 19, 10, 16, 7, 17, 18, 20, 13, 15]);
% time elapsed: 10.22 s
----------
%%%mzn-stat: initTime=0.069870831
%%%mzn-stat: objective=494
%%%mzn-stat: nodes=2187
%%%mzn-stat: restarts=0
%%%mzn-stat: peakDepth=257
%%%mzn-stat: solveTime=0.016191176
%%%mzn-stat: variables=526
%%%mzn-stat: propagators=558
%%%mzn-stat: failures=203
%%%mzn-stat: propagations=35887
%%%mzn-stat: nogoods=203
%%%mzn-stat: numAtomicConstraintsPropagated=0
%%%mzn-stat: circuitNumber191PropagationsThatFoundConflict=38
%%%mzn-stat: circuitNumber191TotalFixedEdgesAtConflict=537
%%%mzn-stat: circuitNumber191NumberOfConflicts=38
%%%mzn-stat: circuitNumber191PropagationsThatPruned=31
%%%mzn-stat: circuitNumber191PropagationsTotal=473
%%%mzn-stat: AverageConflictSize=3.5320197044334973
%%%mzn-stat: NumUnitNogoodsLearned=0
%%%mzn-stat: AverageLearnedNogoodLength=18.182266009852217
%%%mzn-stat: AverageBacktrackAmount=0
%%%mzn-stat: AverageLbd=7.29064039408867
%%%mzn-stat: 2AutonomousSearchNumBackupCalled=1715
%%%mzn-stat: 2AutonomousSearchNumPredicatesRemoved=0
%%%mzn-stat: 2AutonomousSearchNumCalls=1723
%%%mzn-stat: 2AutonomousSearchNumPredicatesAdded=1475
%%%mzn-stat: 2AutonomousSearchAverageSizeOfHeap=1.4277423099245503
%%%mzn-stat: 2AutonomousSearchNumAssignedPredicatesEncountered=2460
%%%mzn-stat-end
maxleg = 494;
succ = array1d(1..20,[2, 4, 1, 5, 6, 11, 8, 9, 10, 14, 12, 13, 19, 15, 16, 17, 20, 3, 7, 18]);
% time elapsed: 10.22 s
----------
%%%mzn-stat: initTime=0.069870831
%%%mzn-stat: objective=448
%%%mzn-stat: nodes=2359
%%%mzn-stat: restarts=0
%%%mzn-stat: peakDepth=257
%%%mzn-stat: solveTime=0.016606623
%%%mzn-stat: variables=526
%%%mzn-stat: propagators=558
%%%mzn-stat: failures=203
%%%mzn-stat: propagations=36872
%%%mzn-stat: nogoods=203
%%%mzn-stat: numAtomicConstraintsPropagated=0
%%%mzn-stat: circuitNumber191PropagationsThatFoundConflict=38
%%%mzn-stat: circuitNumber191TotalFixedEdgesAtConflict=537
%%%mzn-stat: circuitNumber191NumberOfConflicts=38
%%%mzn-stat: circuitNumber191PropagationsThatPruned=33
%%%mzn-stat: circuitNumber191PropagationsTotal=488
%%%mzn-stat: AverageConflictSize=3.5320197044334973
%%%mzn-stat: NumUnitNogoodsLearned=0
%%%mzn-stat: AverageLearnedNogoodLength=18.182266009852217
%%%mzn-stat: AverageBacktrackAmount=0
%%%mzn-stat: AverageLbd=7.29064039408867
%%%mzn-stat: 2AutonomousSearchNumBackupCalled=1873
%%%mzn-stat: 2AutonomousSearchNumPredicatesRemoved=0
%%%mzn-stat: 2AutonomousSearchNumCalls=1882
%%%mzn-stat: 2AutonomousSearchNumPredicatesAdded=1475
%%%mzn-stat: 2AutonomousSearchAverageSizeOfHeap=1.5520722635494155
%%%mzn-stat: 2AutonomousSearchNumAssignedPredicatesEncountered=2921
%%%mzn-stat-end
maxleg = 448;
succ = array1d(1..20,[2, 4, 1, 5, 6, 11, 8, 9, 10, 14, 12, 13, 19, 15, 16, 20, 18, 3, 7, 17]);
% time elapsed: 10.22 s
----------
%%%mzn-stat: initTime=0.069870831
%%%mzn-stat: objective=436
%%%mzn-stat: nodes=2527
%%%mzn-stat: restarts=0
%%%mzn-stat: peakDepth=257
%%%mzn-stat: solveTime=0.016960592
%%%mzn-stat: variables=526
%%%mzn-stat: propagators=558
%%%mzn-stat: failures=203
%%%mzn-stat: propagations=37882
%%%mzn-stat: nogoods=203
%%%mzn-stat: numAtomicConstraintsPropagated=0
%%%mzn-stat: circuitNumber191PropagationsThatFoundConflict=38
%%%mzn-stat: circuitNumber191TotalFixedEdgesAtConflict=537
%%%mzn-stat: circuitNumber191NumberOfConflicts=38
%%%mzn-stat: circuitNumber191PropagationsThatPruned=33
%%%mzn-stat: circuitNumber191PropagationsTotal=499
%%%mzn-stat: AverageConflictSize=3.5320197044334973
%%%mzn-stat: NumUnitNogoodsLearned=0
%%%mzn-stat: AverageLearnedNogoodLength=18.182266009852217
%%%mzn-stat: AverageBacktrackAmount=0
%%%mzn-stat: AverageLbd=7.29064039408867
%%%mzn-stat: 2AutonomousSearchNumBackupCalled=2029
%%%mzn-stat: 2AutonomousSearchNumPredicatesRemoved=0
%%%mzn-stat: 2AutonomousSearchNumCalls=2039
%%%mzn-stat: 2AutonomousSearchNumPredicatesAdded=1475
%%%mzn-stat: 2AutonomousSearchAverageSizeOfHeap=1.658656204021579
%%%mzn-stat: 2AutonomousSearchNumAssignedPredicatesEncountered=3382
%%%mzn-stat-end
maxleg = 436;
succ = array1d(1..20,[2, 4, 1, 5, 6, 11, 8, 9, 10, 14, 12, 13, 19, 15, 20, 17, 18, 3, 7, 16]);
% time elapsed: 10.22 s
----------
%%%mzn-stat: initTime=0.069870831
%%%mzn-stat: objective=435
%%%mzn-stat: nodes=2700
%%%mzn-stat: restarts=0
%%%mzn-stat: peakDepth=257
%%%mzn-stat: solveTime=0.017298943
%%%mzn-stat: variables=526
%%%mzn-stat: propagators=558
%%%mzn-stat: failures=203
%%%mzn-stat: propagations=38871
%%%mzn-stat: nogoods=203
%%%mzn-stat: numAtomicConstraintsPropagated=0
%%%mzn-stat: circuitNumber191PropagationsThatFoundConflict=38
%%%mzn-stat: circuitNumber191TotalFixedEdgesAtConflict=537
%%%mzn-stat: circuitNumber191NumberOfConflicts=38
%%%mzn-stat: circuitNumber191PropagationsThatPruned=33
%%%mzn-stat: circuitNumber191PropagationsTotal=510
%%%mzn-stat: AverageConflictSize=3.5320197044334973
%%%mzn-stat: NumUnitNogoodsLearned=0
%%%mzn-stat: AverageLearnedNogoodLength=18.182266009852217
%%%mzn-stat: AverageBacktrackAmount=0
%%%mzn-stat: AverageLbd=7.29064039408867
%%%mzn-stat: 2AutonomousSearchNumBackupCalled=2191
%%%mzn-stat: 2AutonomousSearchNumPredicatesRemoved=0
%%%mzn-stat: 2AutonomousSearchNumCalls=2202
%%%mzn-stat: 2AutonomousSearchNumPredicatesAdded=1475
%%%mzn-stat: 2AutonomousSearchAverageSizeOfHeap=1.7452316076294279
%%%mzn-stat: 2AutonomousSearchNumAssignedPredicatesEncountered=3843
%%%mzn-stat-end
maxleg = 435;
succ = array1d(1..20,[2, 4, 1, 5, 6, 11, 10, 9, 14, 8, 12, 13, 19, 15, 20, 17, 18, 3, 7, 16]);
% time elapsed: 10.22 s
----------
%%%mzn-stat: initTime=0.069870831
%%%mzn-stat: objective=426
%%%mzn-stat: nodes=3165
%%%mzn-stat: restarts=0
%%%mzn-stat: peakDepth=257
%%%mzn-stat: solveTime=0.034332908
%%%mzn-stat: variables=526
%%%mzn-stat: propagators=558
%%%mzn-stat: failures=446
%%%mzn-stat: propagations=67613
%%%mzn-stat: nogoods=446
%%%mzn-stat: numAtomicConstraintsPropagated=0
%%%mzn-stat: circuitNumber191PropagationsThatFoundConflict=44
%%%mzn-stat: circuitNumber191TotalFixedEdgesAtConflict=611
%%%mzn-stat: circuitNumber191NumberOfConflicts=44
%%%mzn-stat: circuitNumber191PropagationsThatPruned=87
%%%mzn-stat: circuitNumber191PropagationsTotal=780
%%%mzn-stat: AverageConflictSize=4.2757847533632285
%%%mzn-stat: NumUnitNogoodsLearned=0
%%%mzn-stat: AverageLearnedNogoodLength=17.17488789237668
%%%mzn-stat: AverageBacktrackAmount=0
%%%mzn-stat: AverageLbd=6.517937219730942
%%%mzn-stat: 2AutonomousSearchNumBackupCalled=2345
%%%mzn-stat: 2AutonomousSearchNumPredicatesRemoved=0
%%%mzn-stat: 2AutonomousSearchNumCalls=2357
%%%mzn-stat: 2AutonomousSearchNumPredicatesAdded=1827
%%%mzn-stat: 2AutonomousSearchAverageSizeOfHeap=1.862961391599491
%%%mzn-stat: 2AutonomousSearchNumAssignedPredicatesEncountered=4391
%%%mzn-stat-end
maxleg = 426;
succ = array1d(1..20,[2, 4, 1, 5, 6, 18, 19, 9, 10, 7, 3, 11, 12, 8, 14, 20, 16, 17, 13, 15]);
% time elapsed: 10.24 s
----------
%%%mzn-stat: initTime=0.069870831
%%%mzn-stat: objective=422
%%%mzn-stat: nodes=13179
%%%mzn-stat: restarts=0
%%%mzn-stat: peakDepth=257
%%%mzn-stat: solveTime=1.348430634
%%%mzn-stat: variables=526
%%%mzn-stat: propagators=558
%%%mzn-stat: failures=8780
%%%mzn-stat: propagations=1195382
%%%mzn-stat: nogoods=8780
%%%mzn-stat: numAtomicConstraintsPropagated=0
%%%mzn-stat: circuitNumber191PropagationsThatFoundConflict=139
%%%mzn-stat: circuitNumber191TotalFixedEdgesAtConflict=1833
%%%mzn-stat: circuitNumber191NumberOfConflicts=139
%%%mzn-stat: circuitNumber191PropagationsThatPruned=1978
%%%mzn-stat: circuitNumber191PropagationsTotal=9628
%%%mzn-stat: AverageConflictSize=9.852391799544419
%%%mzn-stat: NumUnitNogoodsLearned=0
%%%mzn-stat: AverageLearnedNogoodLength=34.44009111617312
%%%mzn-stat: AverageBacktrackAmount=0
%%%mzn-stat: AverageLbd=7.298633257403189
%%%mzn-stat: 2AutonomousSearchNumBackupCalled=2488
%%%mzn-stat: 2AutonomousSearchNumPredicatesRemoved=0
%%%mzn-stat: 2AutonomousSearchNumCalls=2501
%%%mzn-stat: 2AutonomousSearchNumPredicatesAdded=2589
%%%mzn-stat: 2AutonomousSearchAverageSizeOfHeap=2.086765293882447
%%%mzn-stat: 2AutonomousSearchNumAssignedPredicatesEncountered=5219
%%%mzn-stat-end
maxleg = 422;
succ = array1d(1..20,[2, 4, 5, 3, 8, 11, 1, 9, 10, 14, 12, 13, 19, 15, 20, 17, 18, 6, 7, 16]);
% time elapsed: 11.55 s
----------
%%%mzn-stat: initTime=0.069870831
%%%mzn-stat: objective=421
%%%mzn-stat: nodes=14812
%%%mzn-stat: restarts=0
%%%mzn-stat: peakDepth=257
%%%mzn-stat: solveTime=1.536854787
%%%mzn-stat: variables=526
%%%mzn-stat: propagators=558
%%%mzn-stat: failures=9920
%%%mzn-stat: propagations=1333417
%%%mzn-stat: nogoods=9920
%%%mzn-stat: numAtomicConstraintsPropagated=0
%%%mzn-stat: circuitNumber191PropagationsThatFoundConflict=167
%%%mzn-stat: circuitNumber191TotalFixedEdgesAtConflict=2154
%%%mzn-stat: circuitNumber191NumberOfConflicts=167
%%%mzn-stat: circuitNumber191PropagationsThatPruned=2306
%%%mzn-stat: circuitNumber191PropagationsTotal=11000
%%%mzn-stat: AverageConflictSize=9.454435483870968
%%%mzn-stat: NumUnitNogoodsLearned=0
%%%mzn-stat: AverageLearnedNogoodLength=33.62177419354839
%%%mzn-stat: AverageBacktrackAmount=0
%%%mzn-stat: AverageLbd=7.2759072580645165
%%%mzn-stat: 2AutonomousSearchNumBackupCalled=2630
%%%mzn-stat: 2AutonomousSearchNumPredicatesRemoved=0
%%%mzn-stat: 2AutonomousSearchNumCalls=2644
%%%mzn-stat: 2AutonomousSearchNumPredicatesAdded=3347
%%%mzn-stat: 2AutonomousSearchAverageSizeOfHeap=2.300680786686838
%%%mzn-stat: 2AutonomousSearchNumAssignedPredicatesEncountered=6083
%%%mzn-stat-end
maxleg = 421;
succ = array1d(1..20,[2, 4, 6, 8, 18, 11, 1, 9, 10, 14, 12, 13, 19, 15, 16, 20, 3, 17, 7, 5]);
% time elapsed: 11.74 s
----------
%%%mzn-stat: initTime=0.069870831
%%%mzn-stat: objective=395
%%%mzn-stat: nodes=19368
%%%mzn-stat: restarts=0
%%%mzn-stat: peakDepth=257
%%%mzn-stat: solveTime=2.131257739
%%%mzn-stat: variables=526
%%%mzn-stat: propagators=558
%%%mzn-stat: failures=13356
%%%mzn-stat: propagations=1759032
%%%mzn-stat: nogoods=13356
%%%mzn-stat: numAtomicConstraintsPropagated=0
%%%mzn-stat: circuitNumber191PropagationsThatFoundConflict=218
%%%mzn-stat: circuitNumber191TotalFixedEdgesAtConflict=2765
%%%mzn-stat: circuitNumber191NumberOfConflicts=218
%%%mzn-stat: circuitNumber191PropagationsThatPruned=3027
%%%mzn-stat: circuitNumber191PropagationsTotal=14911
%%%mzn-stat: AverageConflictSize=9.778601377657981
%%%mzn-stat: NumUnitNogoodsLearned=0
%%%mzn-stat: AverageLearnedNogoodLength=32.869122491764
%%%mzn-stat: AverageBacktrackAmount=0
%%%mzn-stat: AverageLbd=7.060122791254867
%%%mzn-stat: 2AutonomousSearchNumBackupCalled=2756
%%%mzn-stat: 2AutonomousSearchNumPredicatesRemoved=0
%%%mzn-stat: 2AutonomousSearchNumCalls=2771
%%%mzn-stat: 2AutonomousSearchNumPredicatesAdded=4151
%%%mzn-stat: 2AutonomousSearchAverageSizeOfHeap=2.529772645254421
%%%mzn-stat: 2AutonomousSearchNumAssignedPredicatesEncountered=7010
%%%mzn-stat-end
maxleg = 395;
succ = array1d(1..20,[2, 7, 1, 3, 8, 17, 19, 9, 10, 14, 6, 11, 12, 15, 16, 20, 18, 5, 13, 4]);
% time elapsed: 12.34 s
----------
%%%mzn-stat: initTime=0.069870831
%%%mzn-stat: objective=394
%%%mzn-stat: nodes=19510
%%%mzn-stat: restarts=0
%%%mzn-stat: peakDepth=257
%%%mzn-stat: solveTime=2.133878925
%%%mzn-stat: variables=526
%%%mzn-stat: propagators=558
%%%mzn-stat: failures=13362
%%%mzn-stat: propagations=1760741
%%%mzn-stat: nogoods=13362
%%%mzn-stat: numAtomicConstraintsPropagated=0
%%%mzn-stat: circuitNumber191PropagationsThatFoundConflict=224
%%%mzn-stat: circuitNumber191TotalFixedEdgesAtConflict=2858
%%%mzn-stat: circuitNumber191NumberOfConflicts=224
%%%mzn-stat: circuitNumber191PropagationsThatPruned=3027
%%%mzn-stat: circuitNumber191PropagationsTotal=14934
%%%mzn-stat: AverageConflictSize=9.780945966172728
%%%mzn-stat: NumUnitNogoodsLearned=0
%%%mzn-stat: AverageLearnedNogoodLength=32.86222122436761
%%%mzn-stat: AverageBacktrackAmount=0
%%%mzn-stat: AverageLbd=7.0607693459063015
%%%mzn-stat: 2AutonomousSearchNumBackupCalled=2878
%%%mzn-stat: 2AutonomousSearchNumPredicatesRemoved=0
%%%mzn-stat: 2AutonomousSearchNumCalls=2894
%%%mzn-stat: 2AutonomousSearchNumPredicatesAdded=4201
%%%mzn-stat: 2AutonomousSearchAverageSizeOfHeap=2.7425708362128542
%%%mzn-stat: 2AutonomousSearchNumAssignedPredicatesEncountered=7937
%%%mzn-stat-end
maxleg = 394;
succ = array1d(1..20,[2, 7, 1, 3, 8, 18, 19, 9, 10, 14, 6, 11, 12, 15, 16, 20, 5, 17, 13, 4]);
% time elapsed: 12.35 s
----------
%%%mzn-stat: initTime=0.069870831
%%%mzn-stat: objective=378
%%%mzn-stat: nodes=19723
%%%mzn-stat: restarts=0
%%%mzn-stat: peakDepth=257
%%%mzn-stat: solveTime=2.146363135
%%%mzn-stat: variables=526
%%%mzn-stat: propagators=558
%%%mzn-stat: failures=13416
%%%mzn-stat: propagations=1768481
%%%mzn-stat: nogoods=13416
%%%mzn-stat: numAtomicConstraintsPropagated=0
%%%mzn-stat: circuitNumber191PropagationsThatFoundConflict=227
%%%mzn-stat: circuitNumber191TotalFixedEdgesAtConflict=2892
%%%mzn-stat: circuitNumber191NumberOfConflicts=227
%%%mzn-stat: circuitNumber191PropagationsThatPruned=3053
%%%mzn-stat: circuitNumber191PropagationsTotal=15036
%%%mzn-stat: AverageConflictSize=9.769603458556947
%%%mzn-stat: NumUnitNogoodsLearned=0
%%%mzn-stat: AverageLearnedNogoodLength=32.83303518187239
%%%mzn-stat: AverageBacktrackAmount=0
%%%mzn-stat: AverageLbd=7.059928443649373
%%%mzn-stat: 2AutonomousSearchNumBackupCalled=3003
%%%mzn-stat: 2AutonomousSearchNumPredicatesRemoved=0
%%%mzn-stat: 2AutonomousSearchNumCalls=3020
%%%mzn-stat: 2AutonomousSearchNumPredicatesAdded=4697
%%%mzn-stat: 2AutonomousSearchAverageSizeOfHeap=2.9357615894039735
%%%mzn-stat: 2AutonomousSearchNumAssignedPredicatesEncountered=8866
%%%mzn-stat-end
maxleg = 378;
succ = array1d(1..20,[3, 4, 5, 8, 17, 11, 2, 9, 10, 14, 12, 13, 19, 16, 1, 20, 18, 6, 7, 15]);
% time elapsed: 12.36 s
----------
==========
% time elapsed: 14.61 s
%%%mzn-stat: initTime=0.069870831
%%%mzn-stat: objective=378
%%%mzn-stat: nodes=35651
%%%mzn-stat: restarts=0
%%%mzn-stat: peakDepth=257
%%%mzn-stat: solveTime=4.400710148
%%%mzn-stat: variables=526
%%%mzn-stat: propagators=558
%%%mzn-stat: failures=24425
%%%mzn-stat: propagations=3241562
%%%mzn-stat: nogoods=24425
%%%mzn-stat: numAtomicConstraintsPropagated=0
%%%mzn-stat: circuitNumber191PropagationsThatFoundConflict=247
%%%mzn-stat: circuitNumber191TotalFixedEdgesAtConflict=3145
%%%mzn-stat: circuitNumber191NumberOfConflicts=247
%%%mzn-stat: circuitNumber191PropagationsThatPruned=4992
%%%mzn-stat: circuitNumber191PropagationsTotal=28856
%%%mzn-stat: AverageConflictSize=10.581207778915045
%%%mzn-stat: NumUnitNogoodsLearned=1
%%%mzn-stat: AverageLearnedNogoodLength=33.83754350051177
%%%mzn-stat: AverageBacktrackAmount=0
%%%mzn-stat: AverageLbd=6.617031729785056
%%%mzn-stat: 2AutonomousSearchNumBackupCalled=3003
%%%mzn-stat: 2AutonomousSearchNumPredicatesRemoved=0
%%%mzn-stat: 2AutonomousSearchNumCalls=3020
%%%mzn-stat: 2AutonomousSearchNumPredicatesAdded=5795
%%%mzn-stat: 2AutonomousSearchAverageSizeOfHeap=2.9357615894039735
%%%mzn-stat: 2AutonomousSearchNumAssignedPredicatesEncountered=8866
%%%mzn-stat-end
